Automatic mesh
0
G (M)
4 4 4
0.5 0.5 0.5